8
1 7
2 8
3 7
4 5
5 6
6 6
7 7
8 10
38
0 1 33
1 0 33
0 2 61
2 0 61
0 3 29
3 0 29
0 4 52
4 0 52
0 5 33
5 0 33
0 6 24
6 0 24
0 7 77
7 0 77
0 8 63
8 0 63
1 2 41
1 3 80
1 4 13
1 5 44
1 6 57
1 7 19
1 8 14
2 4 75
2 5 91
2 6 17
2 7 62
2 8 77
3 4 24
3 5 98
3 6 70
3 7 24
3 8 60
4 5 17
4 7 10
5 6 9
5 8 89
6 8 67
